2-dimensional/CL_05_25_05.vbp
2
1000 1000 
25
29 80 30
34 47 72
36 56 4
75 49 88
69 67 54
35 28 64
88 97 90
71 92 26
76 79 94
68 74 28
40 46 72
83 59 49
90 56 54
51 79 19
58 44 28
78 42 61
28 41 84
75 33 23
34 33 67
48 84 53
58 26 54
31 28 16
34 55 9
83 99 54
70 27 77
