datasets/2-dimensional-benchmark/CL_05_25_05.txt
1000 1000 
0 30 29 80 
1 72 34 47 
2 4 36 56 
3 88 75 49 
4 54 69 67 
5 64 35 28 
6 90 88 97 
7 26 71 92 
8 94 76 79 
9 28 68 74 
10 72 40 46 
11 49 83 59 
12 54 90 56 
13 19 51 79 
14 28 58 44 
15 61 78 42 
16 84 28 41 
17 23 75 33 
18 67 34 33 
19 53 48 84 
20 54 58 26 
21 16 31 28 
22 9 34 55 
23 54 83 99 
24 77 70 27 
